Mack/Bortfeldt(2008)
Bin-Packing-Problem
BP-RG/SBSBPP/SSSCSP
Testcase-ID	11
Problem-ID	11
no_item_types	5
no_items	1825
CONTAINER_DATA (l,w,h)	404	50	1
ITEMS_DATA:
Type	x	y	z	no_items
1	46	40	1	368
2	49	36	1	349
3	55	21	1	365
4	38	15	1	385
5	16	14	1	358
